p cnf 69 455
-1 -4 -7 0
-2 -5 -8 0
-3 -6 -9 0
-1 -7 -10 0
-2 -8 -11 0
-3 -9 -12 0
-1 -10 -13 0
-2 -11 -14 0
-3 -12 -15 0
-1 -13 -16 0
-2 -14 -17 0
-3 -15 -18 0
-1 -16 -19 0
-2 -17 -20 0
-3 -18 -21 0
-1 -19 -22 0
-2 -20 -23 0
-3 -21 -24 0
-1 -22 -25 0
-2 -23 -26 0
-3 -24 -27 0
-1 -25 -28 0
-2 -26 -29 0
-3 -27 -30 0
-1 -28 -31 0
-2 -29 -32 0
-3 -30 -33 0
-1 -31 -34 0
-2 -32 -35 0
-3 -33 -36 0
-1 -34 -37 0
-2 -35 -38 0
-3 -36 -39 0
-1 -37 -40 0
-2 -38 -41 0
-3 -39 -42 0
-1 -40 -43 0
-2 -41 -44 0
-3 -42 -45 0
-1 -43 -46 0
-2 -44 -47 0
-3 -45 -48 0
-1 -46 -49 0
-2 -47 -50 0
-3 -48 -51 0
-1 -49 -52 0
-2 -50 -53 0
-3 -51 -54 0
-1 -52 -55 0
-2 -53 -56 0
-3 -54 -57 0
-1 -55 -58 0
-2 -56 -59 0
-3 -57 -60 0
-1 -58 -61 0
-2 -59 -62 0
-3 -60 -63 0
-1 -61 -64 0
-2 -62 -65 0
-3 -63 -66 0
-1 -64 -67 0
-2 -65 -68 0
-3 -66 -69 0
-4 -7 -13 0
-5 -8 -14 0
-6 -9 -15 0
-4 -10 -16 0
-5 -11 -17 0
-6 -12 -18 0
-4 -13 -19 0
-5 -14 -20 0
-6 -15 -21 0
-4 -16 -22 0
-5 -17 -23 0
-6 -18 -24 0
-4 -19 -25 0
-5 -20 -26 0
-6 -21 -27 0
-4 -22 -28 0
-5 -23 -29 0
-6 -24 -30 0
-4 -25 -31 0
-5 -26 -32 0
-6 -27 -33 0
-4 -28 -34 0
-5 -29 -35 0
-6 -30 -36 0
-4 -31 -37 0
-5 -32 -38 0
-6 -33 -39 0
-4 -34 -40 0
-5 -35 -41 0
-6 -36 -42 0
-4 -37 -43 0
-5 -38 -44 0
-6 -39 -45 0
-4 -40 -46 0
-5 -41 -47 0
-6 -42 -48 0
-4 -43 -49 0
-5 -44 -50 0
-6 -45 -51 0
-4 -46 -52 0
-5 -47 -53 0
-6 -48 -54 0
-4 -49 -55 0
-5 -50 -56 0
-6 -51 -57 0
-4 -52 -58 0
-5 -53 -59 0
-6 -54 -60 0
-4 -55 -61 0
-5 -56 -62 0
-6 -57 -63 0
-4 -58 -64 0
-5 -59 -65 0
-6 -60 -66 0
-4 -61 -67 0
-5 -62 -68 0
-6 -63 -69 0
-7 -10 -19 0
-8 -11 -20 0
-9 -12 -21 0
-7 -13 -22 0
-8 -14 -23 0
-9 -15 -24 0
-7 -16 -25 0
-8 -17 -26 0
-9 -18 -27 0
-7 -19 -28 0
-8 -20 -29 0
-9 -21 -30 0
-7 -22 -31 0
-8 -23 -32 0
-9 -24 -33 0
-7 -25 -34 0
-8 -26 -35 0
-9 -27 -36 0
-7 -28 -37 0
-8 -29 -38 0
-9 -30 -39 0
-7 -31 -40 0
-8 -32 -41 0
-9 -33 -42 0
-7 -34 -43 0
-8 -35 -44 0
-9 -36 -45 0
-7 -37 -46 0
-8 -38 -47 0
-9 -39 -48 0
-7 -40 -49 0
-8 -41 -50 0
-9 -42 -51 0
-7 -43 -52 0
-8 -44 -53 0
-9 -45 -54 0
-7 -46 -55 0
-8 -47 -56 0
-9 -48 -57 0
-7 -49 -58 0
-8 -50 -59 0
-9 -51 -60 0
-7 -52 -61 0
-8 -53 -62 0
-9 -54 -63 0
-7 -55 -64 0
-8 -56 -65 0
-9 -57 -66 0
-7 -58 -67 0
-8 -59 -68 0
-9 -60 -69 0
-10 -13 -25 0
-11 -14 -26 0
-12 -15 -27 0
-10 -16 -28 0
-11 -17 -29 0
-12 -18 -30 0
-10 -19 -31 0
-11 -20 -32 0
-12 -21 -33 0
-10 -22 -34 0
-11 -23 -35 0
-12 -24 -36 0
-10 -25 -37 0
-11 -26 -38 0
-12 -27 -39 0
-10 -28 -40 0
-11 -29 -41 0
-12 -30 -42 0
-10 -31 -43 0
-11 -32 -44 0
-12 -33 -45 0
-10 -34 -46 0
-11 -35 -47 0
-12 -36 -48 0
-10 -37 -49 0
-11 -38 -50 0
-12 -39 -51 0
-10 -40 -52 0
-11 -41 -53 0
-12 -42 -54 0
-10 -43 -55 0
-11 -44 -56 0
-12 -45 -57 0
-10 -46 -58 0
-11 -47 -59 0
-12 -48 -60 0
-10 -49 -61 0
-11 -50 -62 0
-12 -51 -63 0
-10 -52 -64 0
-11 -53 -65 0
-12 -54 -66 0
-10 -55 -67 0
-11 -56 -68 0
-12 -57 -69 0
-13 -16 -31 0
-14 -17 -32 0
-15 -18 -33 0
-13 -19 -34 0
-14 -20 -35 0
-15 -21 -36 0
-13 -22 -37 0
-14 -23 -38 0
-15 -24 -39 0
-13 -25 -40 0
-14 -26 -41 0
-15 -27 -42 0
-13 -28 -43 0
-14 -29 -44 0
-15 -30 -45 0
-13 -31 -46 0
-14 -32 -47 0
-15 -33 -48 0
-13 -34 -49 0
-14 -35 -50 0
-15 -36 -51 0
-13 -37 -52 0
-14 -38 -53 0
-15 -39 -54 0
-13 -40 -55 0
-14 -41 -56 0
-15 -42 -57 0
-13 -43 -58 0
-14 -44 -59 0
-15 -45 -60 0
-13 -46 -61 0
-14 -47 -62 0
-15 -48 -63 0
-13 -49 -64 0
-14 -50 -65 0
-15 -51 -66 0
-13 -52 -67 0
-14 -53 -68 0
-15 -54 -69 0
-16 -19 -37 0
-17 -20 -38 0
-18 -21 -39 0
-16 -22 -40 0
-17 -23 -41 0
-18 -24 -42 0
-16 -25 -43 0
-17 -26 -44 0
-18 -27 -45 0
-16 -28 -46 0
-17 -29 -47 0
-18 -30 -48 0
-16 -31 -49 0
-17 -32 -50 0
-18 -33 -51 0
-16 -34 -52 0
-17 -35 -53 0
-18 -36 -54 0
-16 -37 -55 0
-17 -38 -56 0
-18 -39 -57 0
-16 -40 -58 0
-17 -41 -59 0
-18 -42 -60 0
-16 -43 -61 0
-17 -44 -62 0
-18 -45 -63 0
-16 -46 -64 0
-17 -47 -65 0
-18 -48 -66 0
-16 -49 -67 0
-17 -50 -68 0
-18 -51 -69 0
-19 -22 -43 0
-20 -23 -44 0
-21 -24 -45 0
-19 -25 -46 0
-20 -26 -47 0
-21 -27 -48 0
-19 -28 -49 0
-20 -29 -50 0
-21 -30 -51 0
-19 -31 -52 0
-20 -32 -53 0
-21 -33 -54 0
-19 -34 -55 0
-20 -35 -56 0
-21 -36 -57 0
-19 -37 -58 0
-20 -38 -59 0
-21 -39 -60 0
-19 -40 -61 0
-20 -41 -62 0
-21 -42 -63 0
-19 -43 -64 0
-20 -44 -65 0
-21 -45 -66 0
-19 -46 -67 0
-20 -47 -68 0
-21 -48 -69 0
-22 -25 -49 0
-23 -26 -50 0
-24 -27 -51 0
-22 -28 -52 0
-23 -29 -53 0
-24 -30 -54 0
-22 -31 -55 0
-23 -32 -56 0
-24 -33 -57 0
-22 -34 -58 0
-23 -35 -59 0
-24 -36 -60 0
-22 -37 -61 0
-23 -38 -62 0
-24 -39 -63 0
-22 -40 -64 0
-23 -41 -65 0
-24 -42 -66 0
-22 -43 -67 0
-23 -44 -68 0
-24 -45 -69 0
-25 -28 -55 0
-26 -29 -56 0
-27 -30 -57 0
-25 -31 -58 0
-26 -32 -59 0
-27 -33 -60 0
-25 -34 -61 0
-26 -35 -62 0
-27 -36 -63 0
-25 -37 -64 0
-26 -38 -65 0
-27 -39 -66 0
-25 -40 -67 0
-26 -41 -68 0
-27 -42 -69 0
-28 -31 -61 0
-29 -32 -62 0
-30 -33 -63 0
-28 -34 -64 0
-29 -35 -65 0
-30 -36 -66 0
-28 -37 -67 0
-29 -38 -68 0
-30 -39 -69 0
-31 -34 -67 0
-32 -35 -68 0
-33 -36 -69 0
1 2 3 0
4 5 6 0
7 8 9 0
10 11 12 0
13 14 15 0
16 17 18 0
19 20 21 0
22 23 24 0
25 26 27 0
28 29 30 0
31 32 33 0
34 35 36 0
37 38 39 0
40 41 42 0
43 44 45 0
46 47 48 0
49 50 51 0
52 53 54 0
55 56 57 0
58 59 60 0
61 62 63 0
64 65 66 0
67 68 69 0
-1 -2 0
-1 -3 0
-2 -3 0
-4 -5 0
-4 -6 0
-5 -6 0
-7 -8 0
-7 -9 0
-8 -9 0
-10 -11 0
-10 -12 0
-11 -12 0
-13 -14 0
-13 -15 0
-14 -15 0
-16 -17 0
-16 -18 0
-17 -18 0
-19 -20 0
-19 -21 0
-20 -21 0
-22 -23 0
-22 -24 0
-23 -24 0
-25 -26 0
-25 -27 0
-26 -27 0
-28 -29 0
-28 -30 0
-29 -30 0
-31 -32 0
-31 -33 0
-32 -33 0
-34 -35 0
-34 -36 0
-35 -36 0
-37 -38 0
-37 -39 0
-38 -39 0
-40 -41 0
-40 -42 0
-41 -42 0
-43 -44 0
-43 -45 0
-44 -45 0
-46 -47 0
-46 -48 0
-47 -48 0
-49 -50 0
-49 -51 0
-50 -51 0
-52 -53 0
-52 -54 0
-53 -54 0
-55 -56 0
-55 -57 0
-56 -57 0
-58 -59 0
-58 -60 0
-59 -60 0
-61 -62 0
-61 -63 0
-62 -63 0
-64 -65 0
-64 -66 0
-65 -66 0
-67 -68 0
-67 -69 0
-68 -69 0
